200
1000
210
210
210
209
207
206
205
205
204
204
203
202
202
202
201
200
198
198
198
198
198
197
196
193
193
192
192
191
191
190
190
189
188
188
187
186
186
184
184
184
183
183
183
183
182
182
181
181
180
180
179
178
177
177
177
175
175
175
173
173
172
171
171
169
168
167
167
167
166
166
165
165
163
162
161
160
159
157
157
157
155
154
154
154
151
150
149
148
148
147
146
144
144
142
140
140
139
138
138
137
137
137
136
136
135
135
135
133
132
131
131
130
129
127
126
126
125
124
124
124
123
123
123
122
122
120
120
120
120
120
120
118
117
117
116
116
114
113
113
113
112
111
108
107
107
106
105
105
105
103
103
102
101
101
101
100
100
100
99
99
98
98
98
95
94
94
94
93
91
89
88
87
87
87
85
85
85
85
85
84
82
80
79
79
78
78
78
77
76
75
75
75
74
74
74
74
73
73
73
72
